\ Model Facility Location Problem
\ LP format - for model browsing. Use MPS format to capture full model detail.
Maximize
  3 X1 + 2 X2
Subject To
 R0: X1 + 2 X2 <= 6
 R1: 2 X1 + X2 <= 8
 R2: - X1 + X2 <= 1
 R3: X1 >= 2
Bounds
End
